\ Model PD-Stages
\ LP format - for model browsing. Use MPS format to capture full model detail.
Minimize
  dRLt[0] + dRLt[1] + dLRt[0] + dLRt[1] + dLRt[2] + 0 betat[0] + 0 betat[1]
   + 0 betat[2] + 0 deltat[0] + 0 deltat[1] + 0 deltat[2] + 0 zetat[0]
   + 0 zetat[1] + 0 zetat[2]
Subject To
 R0: uigtd[101,2,1,0] + uigtd[102,2,1,0] + uigtd[203,2,1,0]
   + uigtd[303,2,1,0] <= 1
 R1: uigtd[101,2,1,1] + uigtd[102,2,1,1] + uigtd[203,2,1,1]
   + uigtd[303,2,1,1] <= 1
 R2: uigtd[101,2,1,2] + uigtd[102,2,1,2] + uigtd[203,2,1,2]
   + uigtd[303,2,1,2] <= 1
 R3: vigtd[101,2,1,0] + vigtd[102,2,1,0] + vigtd[203,2,1,0]
   + vigtd[303,2,1,0] <= 1
 R4: vigtd[101,2,1,1] + vigtd[102,2,1,1] + vigtd[203,2,1,1]
   + vigtd[303,2,1,1] <= 1
 R5: vigtd[101,2,1,2] + vigtd[102,2,1,2] + vigtd[203,2,1,2]
   + vigtd[303,2,1,2] <= 1
 R6: uigtd[101,2,1,0] + uigtd[101,2,1,1] + uigtd[101,2,1,2]
   + uigtd[102,2,1,0] + uigtd[102,2,1,1] + uigtd[102,2,1,2]
   + uigtd[203,2,1,0] + uigtd[203,2,1,1] + uigtd[203,2,1,2]
   + uigtd[303,2,1,0] + uigtd[303,2,1,1] + uigtd[303,2,1,2] = 1
 R7: vigtd[101,2,1,0] + vigtd[101,2,1,1] + vigtd[101,2,1,2]
   + vigtd[102,2,1,0] + vigtd[102,2,1,1] + vigtd[102,2,1,2]
   + vigtd[203,2,1,0] + vigtd[203,2,1,1] + vigtd[203,2,1,2]
   + vigtd[303,2,1,0] + vigtd[303,2,1,1] + vigtd[303,2,1,2] = 1
 R8: - uigtd[101,2,1,0] - uigtd[101,2,1,1] - uigtd[101,2,1,2]
   - zigjg[102,101,2] - zigjg[203,101,2] - zigjg[303,101,2] + muig[101,2]
   = 0
 R9: - uigtd[102,2,1,0] - uigtd[102,2,1,1] - uigtd[102,2,1,2]
   - zigjg[101,102,2] - zigjg[203,102,2] - zigjg[303,102,2] + muig[102,2]
   = 0
 R10: - uigtd[203,2,1,0] - uigtd[203,2,1,1] - uigtd[203,2,1,2]
   - zigjg[101,203,2] - zigjg[102,203,2] - zigjg[303,203,2] + muig[203,2]
   = 0
 R11: - uigtd[303,2,1,0] - uigtd[303,2,1,1] - uigtd[303,2,1,2]
   - zigjg[101,303,2] - zigjg[102,303,2] - zigjg[203,303,2] + muig[303,2]
   = 0
 R12: - vigtd[101,2,1,0] - vigtd[101,2,1,1] - vigtd[101,2,1,2]
   - zigjg[101,102,2] - zigjg[101,203,2] - zigjg[101,303,2] + muig[101,2]
   = 0
 R13: - vigtd[102,2,1,0] - vigtd[102,2,1,1] - vigtd[102,2,1,2]
   - zigjg[102,101,2] - zigjg[102,203,2] - zigjg[102,303,2] + muig[102,2]
   = 0
 R14: - vigtd[203,2,1,0] - vigtd[203,2,1,1] - vigtd[203,2,1,2]
   - zigjg[203,101,2] - zigjg[203,102,2] - zigjg[203,303,2] + muig[203,2]
   = 0
 R15: - vigtd[303,2,1,0] - vigtd[303,2,1,1] - vigtd[303,2,1,2]
   - zigjg[303,101,2] - zigjg[303,102,2] - zigjg[303,203,2] + muig[303,2]
   = 0
 R16: 10000 uigtd[101,2,1,0] + 10000 uigtd[102,2,1,0]
   + 10000 uigtd[203,2,1,0] + 10000 uigtd[303,2,1,0]
   + 0.3333333333333333 pLigtd[101,2,1,0]
   + 0.3333333333333333 pLigtd[102,2,1,0]
   + 0.3333333333333333 pLigtd[203,2,1,0]
   + 0.3333333333333333 pLigtd[303,2,1,0] + 10000 vigtd[101,2,1,0]
   + 10000 vigtd[102,2,1,0] + 10000 vigtd[203,2,1,0]
   + 10000 vigtd[303,2,1,0] + 0.3333333333333333 pRigtd[101,2,1,0]
   + 0.3333333333333333 pRigtd[102,2,1,0]
   + 0.3333333333333333 pRigtd[203,2,1,0]
   + 0.3333333333333333 pRigtd[303,2,1,0]
   + 0.3333333333333333 pigjg[101,102,2]
   + 0.3333333333333333 pigjg[101,203,2]
   + 0.3333333333333333 pigjg[101,303,2]
   + 0.3333333333333333 pigjg[102,101,2]
   + 0.3333333333333333 pigjg[102,203,2]
   + 0.3333333333333333 pigjg[102,303,2]
   + 0.3333333333333333 pigjg[203,101,2]
   + 0.3333333333333333 pigjg[203,102,2]
   + 0.3333333333333333 pigjg[203,303,2]
   + 0.3333333333333333 pigjg[303,101,2]
   + 0.3333333333333333 pigjg[303,102,2]
   + 0.3333333333333333 pigjg[303,203,2] - dLRt[1]
   + 0.9500583173861361 pig[101,2] + 1.210040764685724 pig[102,2]
   + 1.17664692385628 pig[203,2] + 1.68065160284915 pig[303,2] <= 20000
 R17: 10000 uigtd[101,2,1,1] + 10000 uigtd[102,2,1,1]
   + 10000 uigtd[203,2,1,1] + 10000 uigtd[303,2,1,1]
   + 0.3333333333333333 pLigtd[101,2,1,1]
   + 0.3333333333333333 pLigtd[102,2,1,1]
   + 0.3333333333333333 pLigtd[203,2,1,1]
   + 0.3333333333333333 pLigtd[303,2,1,1] + 10000 vigtd[101,2,1,1]
   + 10000 vigtd[102,2,1,1] + 10000 vigtd[203,2,1,1]
   + 10000 vigtd[303,2,1,1] + 0.3333333333333333 pRigtd[101,2,1,1]
   + 0.3333333333333333 pRigtd[102,2,1,1]
   + 0.3333333333333333 pRigtd[203,2,1,1]
   + 0.3333333333333333 pRigtd[303,2,1,1]
   + 0.3333333333333333 pigjg[101,102,2]
   + 0.3333333333333333 pigjg[101,203,2]
   + 0.3333333333333333 pigjg[101,303,2]
   + 0.3333333333333333 pigjg[102,101,2]
   + 0.3333333333333333 pigjg[102,203,2]
   + 0.3333333333333333 pigjg[102,303,2]
   + 0.3333333333333333 pigjg[203,101,2]
   + 0.3333333333333333 pigjg[203,102,2]
   + 0.3333333333333333 pigjg[203,303,2]
   + 0.3333333333333333 pigjg[303,101,2]
   + 0.3333333333333333 pigjg[303,102,2]
   + 0.3333333333333333 pigjg[303,203,2] - dLRt[1]
   + 0.9500583173861361 pig[101,2] + 1.210040764685724 pig[102,2]
   + 1.17664692385628 pig[203,2] + 1.68065160284915 pig[303,2] <= 20000
 R18: 10000 uigtd[101,2,1,2] + 10000 uigtd[102,2,1,2]
   + 10000 uigtd[203,2,1,2] + 10000 uigtd[303,2,1,2]
   + 0.3333333333333333 pLigtd[101,2,1,2]
   + 0.3333333333333333 pLigtd[102,2,1,2]
   + 0.3333333333333333 pLigtd[203,2,1,2]
   + 0.3333333333333333 pLigtd[303,2,1,2] + 10000 vigtd[101,2,1,2]
   + 10000 vigtd[102,2,1,2] + 10000 vigtd[203,2,1,2]
   + 10000 vigtd[303,2,1,2] + 0.3333333333333333 pRigtd[101,2,1,2]
   + 0.3333333333333333 pRigtd[102,2,1,2]
   + 0.3333333333333333 pRigtd[203,2,1,2]
   + 0.3333333333333333 pRigtd[303,2,1,2]
   + 0.3333333333333333 pigjg[101,102,2]
   + 0.3333333333333333 pigjg[101,203,2]
   + 0.3333333333333333 pigjg[101,303,2]
   + 0.3333333333333333 pigjg[102,101,2]
   + 0.3333333333333333 pigjg[102,203,2]
   + 0.3333333333333333 pigjg[102,303,2]
   + 0.3333333333333333 pigjg[203,101,2]
   + 0.3333333333333333 pigjg[203,102,2]
   + 0.3333333333333333 pigjg[203,303,2]
   + 0.3333333333333333 pigjg[303,101,2]
   + 0.3333333333333333 pigjg[303,102,2]
   + 0.3333333333333333 pigjg[303,203,2] - dLRt[1]
   + 0.9500583173861361 pig[101,2] + 1.210040764685724 pig[102,2]
   + 1.17664692385628 pig[203,2] + 1.68065160284915 pig[303,2] <= 20000
 R19: 10000 uigtd[101,2,1,0] + 10000 uigtd[102,2,1,0]
   + 10000 uigtd[203,2,1,0] + 10000 uigtd[303,2,1,0]
   + 10000 vigtd[101,2,1,0] + 10000 vigtd[102,2,1,0]
   + 10000 vigtd[203,2,1,0] + 10000 vigtd[303,2,1,0] + dLRt[1] <= 20040
 R20: 10000 uigtd[101,2,1,1] + 10000 uigtd[102,2,1,1]
   + 10000 uigtd[203,2,1,1] + 10000 uigtd[303,2,1,1]
   + 10000 vigtd[101,2,1,1] + 10000 vigtd[102,2,1,1]
   + 10000 vigtd[203,2,1,1] + 10000 vigtd[303,2,1,1] + dLRt[1] <= 20040
 R21: 10000 uigtd[101,2,1,2] + 10000 uigtd[102,2,1,2]
   + 10000 uigtd[203,2,1,2] + 10000 uigtd[303,2,1,2]
   + 10000 vigtd[101,2,1,2] + 10000 vigtd[102,2,1,2]
   + 10000 vigtd[203,2,1,2] + 10000 vigtd[303,2,1,2] + dLRt[1] <= 20040
 R22: uigtd[101,2,1,0] + uigtd[102,2,1,0] + uigtd[203,2,1,0]
   + uigtd[303,2,1,0] - vigtd[101,2,1,0] - vigtd[102,2,1,0]
   - vigtd[203,2,1,0] - vigtd[303,2,1,0] <= 0
 R23: uigtd[101,2,1,1] + uigtd[102,2,1,1] + uigtd[203,2,1,1]
   + uigtd[303,2,1,1] - vigtd[101,2,1,1] - vigtd[102,2,1,1]
   - vigtd[203,2,1,1] - vigtd[303,2,1,1] <= 0
 R24: uigtd[101,2,1,2] + uigtd[102,2,1,2] + uigtd[203,2,1,2]
   + uigtd[303,2,1,2] - vigtd[101,2,1,2] - vigtd[102,2,1,2]
   - vigtd[203,2,1,2] - vigtd[303,2,1,2] <= 0
 R25: - muig[101,2] + pig[101,2] - alphaig[101,2] >= -1
 R26: - muig[102,2] + pig[102,2] - alphaig[102,2] >= -1
 R27: - muig[203,2] + pig[203,2] - alphaig[203,2] >= -1
 R28: - muig[303,2] + pig[303,2] - alphaig[303,2] >= -1
 R29: - muig[101,2] + pig[101,2] <= 0
 R30: - muig[102,2] + pig[102,2] <= 0
 R31: - muig[203,2] + pig[203,2] <= 0
 R32: - muig[303,2] + pig[303,2] <= 0
 R33: pig[101,2] - alphaig[101,2] <= 0
 R34: pig[102,2] - alphaig[102,2] <= 0
 R35: pig[203,2] - alphaig[203,2] <= 0
 R36: pig[303,2] - alphaig[303,2] <= 0
 R37: 4 zigjg[101,102,2] + sig[101,2] - sig[102,2] <= 3
 R38: 4 zigjg[101,203,2] + sig[101,2] - sig[203,2] <= 3
 R39: 4 zigjg[101,303,2] + sig[101,2] - sig[303,2] <= 3
 R40: 4 zigjg[102,101,2] - sig[101,2] + sig[102,2] <= 3
 R41: 4 zigjg[102,203,2] + sig[102,2] - sig[203,2] <= 3
 R42: 4 zigjg[102,303,2] + sig[102,2] - sig[303,2] <= 3
 R43: 4 zigjg[203,101,2] - sig[101,2] + sig[203,2] <= 3
 R44: 4 zigjg[203,102,2] - sig[102,2] + sig[203,2] <= 3
 R45: 4 zigjg[203,303,2] + sig[203,2] - sig[303,2] <= 3
 R46: 4 zigjg[303,101,2] - sig[101,2] + sig[303,2] <= 3
 R47: 4 zigjg[303,102,2] - sig[102,2] + sig[303,2] <= 3
 R48: 4 zigjg[303,203,2] - sig[203,2] + sig[303,2] <= 3
 R49: sig[101,2] >= 0
 R50: sig[101,2] <= 3
 R51: sig[102,2] >= 0
 R52: sig[102,2] <= 3
 R53: sig[203,2] >= 0
 R54: sig[203,2] <= 3
 R55: sig[303,2] >= 0
 R56: sig[303,2] <= 3
 R57: difLigtd[101,2,1,0,0] - xLt[1,0] + Rig[101,2,0] >= 0
 R58: difLigtd[101,2,1,0,1] - xLt[1,1] + Rig[101,2,1] >= 0
 R59: difLigtd[101,2,1,1,0] - xLt[1,0] + Rig[101,2,0] >= 0
 R60: difLigtd[101,2,1,1,1] - xLt[1,1] + Rig[101,2,1] >= 0
 R61: difLigtd[101,2,1,2,0] - xLt[1,0] + Rig[101,2,0] >= 0
 R62: difLigtd[101,2,1,2,1] - xLt[1,1] + Rig[101,2,1] >= 0
 R63: difLigtd[102,2,1,0,0] - xLt[1,0] + Rig[102,2,0] >= 0
 R64: difLigtd[102,2,1,0,1] - xLt[1,1] + Rig[102,2,1] >= 0
 R65: difLigtd[102,2,1,1,0] - xLt[1,0] + Rig[102,2,0] >= 0
 R66: difLigtd[102,2,1,1,1] - xLt[1,1] + Rig[102,2,1] >= 0
 R67: difLigtd[102,2,1,2,0] - xLt[1,0] + Rig[102,2,0] >= 0
 R68: difLigtd[102,2,1,2,1] - xLt[1,1] + Rig[102,2,1] >= 0
 R69: difLigtd[203,2,1,0,0] - xLt[1,0] + Rig[203,2,0] >= 0
 R70: difLigtd[203,2,1,0,1] - xLt[1,1] + Rig[203,2,1] >= 0
 R71: difLigtd[203,2,1,1,0] - xLt[1,0] + Rig[203,2,0] >= 0
 R72: difLigtd[203,2,1,1,1] - xLt[1,1] + Rig[203,2,1] >= 0
 R73: difLigtd[203,2,1,2,0] - xLt[1,0] + Rig[203,2,0] >= 0
 R74: difLigtd[203,2,1,2,1] - xLt[1,1] + Rig[203,2,1] >= 0
 R75: difLigtd[303,2,1,0,0] - xLt[1,0] + Rig[303,2,0] >= 0
 R76: difLigtd[303,2,1,0,1] - xLt[1,1] + Rig[303,2,1] >= 0
 R77: difLigtd[303,2,1,1,0] - xLt[1,0] + Rig[303,2,0] >= 0
 R78: difLigtd[303,2,1,1,1] - xLt[1,1] + Rig[303,2,1] >= 0
 R79: difLigtd[303,2,1,2,0] - xLt[1,0] + Rig[303,2,0] >= 0
 R80: difLigtd[303,2,1,2,1] - xLt[1,1] + Rig[303,2,1] >= 0
 R81: difLigtd[101,2,1,0,0] + xLt[1,0] - Rig[101,2,0] >= 0
 R82: difLigtd[101,2,1,0,1] + xLt[1,1] - Rig[101,2,1] >= 0
 R83: difLigtd[101,2,1,1,0] + xLt[1,0] - Rig[101,2,0] >= 0
 R84: difLigtd[101,2,1,1,1] + xLt[1,1] - Rig[101,2,1] >= 0
 R85: difLigtd[101,2,1,2,0] + xLt[1,0] - Rig[101,2,0] >= 0
 R86: difLigtd[101,2,1,2,1] + xLt[1,1] - Rig[101,2,1] >= 0
 R87: difLigtd[102,2,1,0,0] + xLt[1,0] - Rig[102,2,0] >= 0
 R88: difLigtd[102,2,1,0,1] + xLt[1,1] - Rig[102,2,1] >= 0
 R89: difLigtd[102,2,1,1,0] + xLt[1,0] - Rig[102,2,0] >= 0
 R90: difLigtd[102,2,1,1,1] + xLt[1,1] - Rig[102,2,1] >= 0
 R91: difLigtd[102,2,1,2,0] + xLt[1,0] - Rig[102,2,0] >= 0
 R92: difLigtd[102,2,1,2,1] + xLt[1,1] - Rig[102,2,1] >= 0
 R93: difLigtd[203,2,1,0,0] + xLt[1,0] - Rig[203,2,0] >= 0
 R94: difLigtd[203,2,1,0,1] + xLt[1,1] - Rig[203,2,1] >= 0
 R95: difLigtd[203,2,1,1,0] + xLt[1,0] - Rig[203,2,0] >= 0
 R96: difLigtd[203,2,1,1,1] + xLt[1,1] - Rig[203,2,1] >= 0
 R97: difLigtd[203,2,1,2,0] + xLt[1,0] - Rig[203,2,0] >= 0
 R98: difLigtd[203,2,1,2,1] + xLt[1,1] - Rig[203,2,1] >= 0
 R99: difLigtd[303,2,1,0,0] + xLt[1,0] - Rig[303,2,0] >= 0
 R100: difLigtd[303,2,1,0,1] + xLt[1,1] - Rig[303,2,1] >= 0
 R101: difLigtd[303,2,1,1,0] + xLt[1,0] - Rig[303,2,0] >= 0
 R102: difLigtd[303,2,1,1,1] + xLt[1,1] - Rig[303,2,1] >= 0
 R103: difLigtd[303,2,1,2,0] + xLt[1,0] - Rig[303,2,0] >= 0
 R104: difLigtd[303,2,1,2,1] + xLt[1,1] - Rig[303,2,1] >= 0
 R105: - 10000 uigtd[101,2,1,0] + pLigtd[101,2,1,0] <= 0
 R106: - 10000 uigtd[101,2,1,1] + pLigtd[101,2,1,1] <= 0
 R107: - 10000 uigtd[101,2,1,2] + pLigtd[101,2,1,2] <= 0
 R108: - 10000 uigtd[102,2,1,0] + pLigtd[102,2,1,0] <= 0
 R109: - 10000 uigtd[102,2,1,1] + pLigtd[102,2,1,1] <= 0
 R110: - 10000 uigtd[102,2,1,2] + pLigtd[102,2,1,2] <= 0
 R111: - 10000 uigtd[203,2,1,0] + pLigtd[203,2,1,0] <= 0
 R112: - 10000 uigtd[203,2,1,1] + pLigtd[203,2,1,1] <= 0
 R113: - 10000 uigtd[203,2,1,2] + pLigtd[203,2,1,2] <= 0
 R114: - 10000 uigtd[303,2,1,0] + pLigtd[303,2,1,0] <= 0
 R115: - 10000 uigtd[303,2,1,1] + pLigtd[303,2,1,1] <= 0
 R116: - 10000 uigtd[303,2,1,2] + pLigtd[303,2,1,2] <= 0
 R117: - dLigtd[101,2,1,0] + pLigtd[101,2,1,0] <= 0
 R118: - dLigtd[101,2,1,1] + pLigtd[101,2,1,1] <= 0
 R119: - dLigtd[101,2,1,2] + pLigtd[101,2,1,2] <= 0
 R120: - dLigtd[102,2,1,0] + pLigtd[102,2,1,0] <= 0
 R121: - dLigtd[102,2,1,1] + pLigtd[102,2,1,1] <= 0
 R122: - dLigtd[102,2,1,2] + pLigtd[102,2,1,2] <= 0
 R123: - dLigtd[203,2,1,0] + pLigtd[203,2,1,0] <= 0
 R124: - dLigtd[203,2,1,1] + pLigtd[203,2,1,1] <= 0
 R125: - dLigtd[203,2,1,2] + pLigtd[203,2,1,2] <= 0
 R126: - dLigtd[303,2,1,0] + pLigtd[303,2,1,0] <= 0
 R127: - dLigtd[303,2,1,1] + pLigtd[303,2,1,1] <= 0
 R128: - dLigtd[303,2,1,2] + pLigtd[303,2,1,2] <= 0
 R129: pLigtd[101,2,1,0] >= 0
 R130: pLigtd[101,2,1,1] >= 0
 R131: pLigtd[101,2,1,2] >= 0
 R132: pLigtd[102,2,1,0] >= 0
 R133: pLigtd[102,2,1,1] >= 0
 R134: pLigtd[102,2,1,2] >= 0
 R135: pLigtd[203,2,1,0] >= 0
 R136: pLigtd[203,2,1,1] >= 0
 R137: pLigtd[203,2,1,2] >= 0
 R138: pLigtd[303,2,1,0] >= 0
 R139: pLigtd[303,2,1,1] >= 0
 R140: pLigtd[303,2,1,2] >= 0
 R141: - 10000 uigtd[101,2,1,0] - dLigtd[101,2,1,0] + pLigtd[101,2,1,0]
   >= -10000
 R142: - 10000 uigtd[101,2,1,1] - dLigtd[101,2,1,1] + pLigtd[101,2,1,1]
   >= -10000
 R143: - 10000 uigtd[101,2,1,2] - dLigtd[101,2,1,2] + pLigtd[101,2,1,2]
   >= -10000
 R144: - 10000 uigtd[102,2,1,0] - dLigtd[102,2,1,0] + pLigtd[102,2,1,0]
   >= -10000
 R145: - 10000 uigtd[102,2,1,1] - dLigtd[102,2,1,1] + pLigtd[102,2,1,1]
   >= -10000
 R146: - 10000 uigtd[102,2,1,2] - dLigtd[102,2,1,2] + pLigtd[102,2,1,2]
   >= -10000
 R147: - 10000 uigtd[203,2,1,0] - dLigtd[203,2,1,0] + pLigtd[203,2,1,0]
   >= -10000
 R148: - 10000 uigtd[203,2,1,1] - dLigtd[203,2,1,1] + pLigtd[203,2,1,1]
   >= -10000
 R149: - 10000 uigtd[203,2,1,2] - dLigtd[203,2,1,2] + pLigtd[203,2,1,2]
   >= -10000
 R150: - 10000 uigtd[303,2,1,0] - dLigtd[303,2,1,0] + pLigtd[303,2,1,0]
   >= -10000
 R151: - 10000 uigtd[303,2,1,1] - dLigtd[303,2,1,1] + pLigtd[303,2,1,1]
   >= -10000
 R152: - 10000 uigtd[303,2,1,2] - dLigtd[303,2,1,2] + pLigtd[303,2,1,2]
   >= -10000
 R153: difigjg[101,102,2,0] + Rig[102,2,0] - Lig[101,2,0] >= 0
 R154: difigjg[101,102,2,1] + Rig[102,2,1] - Lig[101,2,1] >= 0
 R155: difigjg[101,203,2,0] + Rig[203,2,0] - Lig[101,2,0] >= 0
 R156: difigjg[101,203,2,1] + Rig[203,2,1] - Lig[101,2,1] >= 0
 R157: difigjg[101,303,2,0] + Rig[303,2,0] - Lig[101,2,0] >= 0
 R158: difigjg[101,303,2,1] + Rig[303,2,1] - Lig[101,2,1] >= 0
 R159: difigjg[102,101,2,0] + Rig[101,2,0] - Lig[102,2,0] >= 0
 R160: difigjg[102,101,2,1] + Rig[101,2,1] - Lig[102,2,1] >= 0
 R161: difigjg[102,203,2,0] + Rig[203,2,0] - Lig[102,2,0] >= 0
 R162: difigjg[102,203,2,1] + Rig[203,2,1] - Lig[102,2,1] >= 0
 R163: difigjg[102,303,2,0] + Rig[303,2,0] - Lig[102,2,0] >= 0
 R164: difigjg[102,303,2,1] + Rig[303,2,1] - Lig[102,2,1] >= 0
 R165: difigjg[203,101,2,0] + Rig[101,2,0] - Lig[203,2,0] >= 0
 R166: difigjg[203,101,2,1] + Rig[101,2,1] - Lig[203,2,1] >= 0
 R167: difigjg[203,102,2,0] + Rig[102,2,0] - Lig[203,2,0] >= 0
 R168: difigjg[203,102,2,1] + Rig[102,2,1] - Lig[203,2,1] >= 0
 R169: difigjg[203,303,2,0] + Rig[303,2,0] - Lig[203,2,0] >= 0
 R170: difigjg[203,303,2,1] + Rig[303,2,1] - Lig[203,2,1] >= 0
 R171: difigjg[303,101,2,0] + Rig[101,2,0] - Lig[303,2,0] >= 0
 R172: difigjg[303,101,2,1] + Rig[101,2,1] - Lig[303,2,1] >= 0
 R173: difigjg[303,102,2,0] + Rig[102,2,0] - Lig[303,2,0] >= 0
 R174: difigjg[303,102,2,1] + Rig[102,2,1] - Lig[303,2,1] >= 0
 R175: difigjg[303,203,2,0] + Rig[203,2,0] - Lig[303,2,0] >= 0
 R176: difigjg[303,203,2,1] + Rig[203,2,1] - Lig[303,2,1] >= 0
 R177: difigjg[101,102,2,0] - Rig[102,2,0] + Lig[101,2,0] >= 0
 R178: difigjg[101,102,2,1] - Rig[102,2,1] + Lig[101,2,1] >= 0
 R179: difigjg[101,203,2,0] - Rig[203,2,0] + Lig[101,2,0] >= 0
 R180: difigjg[101,203,2,1] - Rig[203,2,1] + Lig[101,2,1] >= 0
 R181: difigjg[101,303,2,0] - Rig[303,2,0] + Lig[101,2,0] >= 0
 R182: difigjg[101,303,2,1] - Rig[303,2,1] + Lig[101,2,1] >= 0
 R183: difigjg[102,101,2,0] - Rig[101,2,0] + Lig[102,2,0] >= 0
 R184: difigjg[102,101,2,1] - Rig[101,2,1] + Lig[102,2,1] >= 0
 R185: difigjg[102,203,2,0] - Rig[203,2,0] + Lig[102,2,0] >= 0
 R186: difigjg[102,203,2,1] - Rig[203,2,1] + Lig[102,2,1] >= 0
 R187: difigjg[102,303,2,0] - Rig[303,2,0] + Lig[102,2,0] >= 0
 R188: difigjg[102,303,2,1] - Rig[303,2,1] + Lig[102,2,1] >= 0
 R189: difigjg[203,101,2,0] - Rig[101,2,0] + Lig[203,2,0] >= 0
 R190: difigjg[203,101,2,1] - Rig[101,2,1] + Lig[203,2,1] >= 0
 R191: difigjg[203,102,2,0] - Rig[102,2,0] + Lig[203,2,0] >= 0
 R192: difigjg[203,102,2,1] - Rig[102,2,1] + Lig[203,2,1] >= 0
 R193: difigjg[203,303,2,0] - Rig[303,2,0] + Lig[203,2,0] >= 0
 R194: difigjg[203,303,2,1] - Rig[303,2,1] + Lig[203,2,1] >= 0
 R195: difigjg[303,101,2,0] - Rig[101,2,0] + Lig[303,2,0] >= 0
 R196: difigjg[303,101,2,1] - Rig[101,2,1] + Lig[303,2,1] >= 0
 R197: difigjg[303,102,2,0] - Rig[102,2,0] + Lig[303,2,0] >= 0
 R198: difigjg[303,102,2,1] - Rig[102,2,1] + Lig[303,2,1] >= 0
 R199: difigjg[303,203,2,0] - Rig[203,2,0] + Lig[303,2,0] >= 0
 R200: difigjg[303,203,2,1] - Rig[203,2,1] + Lig[303,2,1] >= 0
 R201: - 6.052943284495557 zigjg[101,102,2] + pigjg[101,102,2] <= 0
 R202: - digjg[101,102,2] + pigjg[101,102,2] <= 0
 R203: pigjg[101,102,2] >= 0
 R204: - 6.052943284495557 zigjg[101,102,2] - digjg[101,102,2]
   + pigjg[101,102,2] >= -6.052943284495557
 R205: - 4.137946247683295 zigjg[101,203,2] + pigjg[101,203,2] <= 0
 R206: - digjg[101,203,2] + pigjg[101,203,2] <= 0
 R207: pigjg[101,203,2] >= 0
 R208: - 4.137946247683295 zigjg[101,203,2] - digjg[101,203,2]
   + pigjg[101,203,2] >= -4.137946247683295
 R209: - 6.052943284495557 zigjg[101,303,2] + pigjg[101,303,2] <= 0
 R210: - digjg[101,303,2] + pigjg[101,303,2] <= 0
 R211: - 3.529940771568842 zigjg[101,303,2] + pigjg[101,303,2] >= 0
 R212: - 6.052943284495557 zigjg[101,303,2] - digjg[101,303,2]
   + pigjg[101,303,2] >= -6.052943284495557
 R213: - 6.052943284495557 zigjg[102,101,2] + pigjg[102,101,2] <= 0
 R214: - digjg[102,101,2] + pigjg[102,101,2] <= 0
 R215: pigjg[102,101,2] >= 0
 R216: - 6.052943284495557 zigjg[102,101,2] - digjg[102,101,2]
   + pigjg[102,101,2] >= -6.052943284495557
 R217: - 6.052943284495557 zigjg[102,203,2] + pigjg[102,203,2] <= 0
 R218: - digjg[102,203,2] + pigjg[102,203,2] <= 0
 R219: - 2.850174952158409 zigjg[102,203,2] + pigjg[102,203,2] >= 0
 R220: - 6.052943284495557 zigjg[102,203,2] - digjg[102,203,2]
   + pigjg[102,203,2] >= -6.052943284495557
 R221: - 5.041954808547449 zigjg[102,303,2] + pigjg[102,303,2] <= 0
 R222: - digjg[102,303,2] + pigjg[102,303,2] <= 0
 R223: pigjg[102,303,2] >= 0
 R224: - 5.041954808547449 zigjg[102,303,2] - digjg[102,303,2]
   + pigjg[102,303,2] >= -5.041954808547449
 R225: - 4.137946247683295 zigjg[203,101,2] + pigjg[203,101,2] <= 0
 R226: - digjg[203,101,2] + pigjg[203,101,2] <= 0
 R227: pigjg[203,101,2] >= 0
 R228: - 4.137946247683295 zigjg[203,101,2] - digjg[203,101,2]
   + pigjg[203,101,2] >= -4.137946247683295
 R229: - 6.052943284495557 zigjg[203,102,2] + pigjg[203,102,2] <= 0
 R230: - digjg[203,102,2] + pigjg[203,102,2] <= 0
 R231: - 2.850174952158409 zigjg[203,102,2] + pigjg[203,102,2] >= 0
 R232: - 6.052943284495557 zigjg[203,102,2] - digjg[203,102,2]
   + pigjg[203,102,2] >= -6.052943284495557
 R233: - 6.052943284495557 zigjg[203,303,2] + pigjg[203,303,2] <= 0
 R234: - digjg[203,303,2] + pigjg[203,303,2] <= 0
 R235: pigjg[203,303,2] >= 0
 R236: - 6.052943284495557 zigjg[203,303,2] - digjg[203,303,2]
   + pigjg[203,303,2] >= -6.052943284495557
 R237: - 6.052943284495557 zigjg[303,101,2] + pigjg[303,101,2] <= 0
 R238: - digjg[303,101,2] + pigjg[303,101,2] <= 0
 R239: - 3.529940771568842 zigjg[303,101,2] + pigjg[303,101,2] >= 0
 R240: - 6.052943284495557 zigjg[303,101,2] - digjg[303,101,2]
   + pigjg[303,101,2] >= -6.052943284495557
 R241: - 5.041954808547449 zigjg[303,102,2] + pigjg[303,102,2] <= 0
 R242: - digjg[303,102,2] + pigjg[303,102,2] <= 0
 R243: pigjg[303,102,2] >= 0
 R244: - 5.041954808547449 zigjg[303,102,2] - digjg[303,102,2]
   + pigjg[303,102,2] >= -5.041954808547449
 R245: - 6.052943284495557 zigjg[303,203,2] + pigjg[303,203,2] <= 0
 R246: - digjg[303,203,2] + pigjg[303,203,2] <= 0
 R247: pigjg[303,203,2] >= 0
 R248: - 6.052943284495557 zigjg[303,203,2] - digjg[303,203,2]
   + pigjg[303,203,2] >= -6.052943284495557
 R249: difRigtd[101,2,1,0,0] + xRt[1,0] - Lig[101,2,0] >= 0
 R250: difRigtd[101,2,1,0,1] + xRt[1,1] - Lig[101,2,1] >= 0
 R251: difRigtd[101,2,1,1,0] + xRt[1,0] - Lig[101,2,0] >= 0
 R252: difRigtd[101,2,1,1,1] + xRt[1,1] - Lig[101,2,1] >= 0
 R253: difRigtd[101,2,1,2,0] + xRt[1,0] - Lig[101,2,0] >= 0
 R254: difRigtd[101,2,1,2,1] + xRt[1,1] - Lig[101,2,1] >= 0
 R255: difRigtd[102,2,1,0,0] + xRt[1,0] - Lig[102,2,0] >= 0
 R256: difRigtd[102,2,1,0,1] + xRt[1,1] - Lig[102,2,1] >= 0
 R257: difRigtd[102,2,1,1,0] + xRt[1,0] - Lig[102,2,0] >= 0
 R258: difRigtd[102,2,1,1,1] + xRt[1,1] - Lig[102,2,1] >= 0
 R259: difRigtd[102,2,1,2,0] + xRt[1,0] - Lig[102,2,0] >= 0
 R260: difRigtd[102,2,1,2,1] + xRt[1,1] - Lig[102,2,1] >= 0
 R261: difRigtd[203,2,1,0,0] + xRt[1,0] - Lig[203,2,0] >= 0
 R262: difRigtd[203,2,1,0,1] + xRt[1,1] - Lig[203,2,1] >= 0
 R263: difRigtd[203,2,1,1,0] + xRt[1,0] - Lig[203,2,0] >= 0
 R264: difRigtd[203,2,1,1,1] + xRt[1,1] - Lig[203,2,1] >= 0
 R265: difRigtd[203,2,1,2,0] + xRt[1,0] - Lig[203,2,0] >= 0
 R266: difRigtd[203,2,1,2,1] + xRt[1,1] - Lig[203,2,1] >= 0
 R267: difRigtd[303,2,1,0,0] + xRt[1,0] - Lig[303,2,0] >= 0
 R268: difRigtd[303,2,1,0,1] + xRt[1,1] - Lig[303,2,1] >= 0
 R269: difRigtd[303,2,1,1,0] + xRt[1,0] - Lig[303,2,0] >= 0
 R270: difRigtd[303,2,1,1,1] + xRt[1,1] - Lig[303,2,1] >= 0
 R271: difRigtd[303,2,1,2,0] + xRt[1,0] - Lig[303,2,0] >= 0
 R272: difRigtd[303,2,1,2,1] + xRt[1,1] - Lig[303,2,1] >= 0
 R273: difRigtd[101,2,1,0,0] - xRt[1,0] + Lig[101,2,0] >= 0
 R274: difRigtd[101,2,1,0,1] - xRt[1,1] + Lig[101,2,1] >= 0
 R275: difRigtd[101,2,1,1,0] - xRt[1,0] + Lig[101,2,0] >= 0
 R276: difRigtd[101,2,1,1,1] - xRt[1,1] + Lig[101,2,1] >= 0
 R277: difRigtd[101,2,1,2,0] - xRt[1,0] + Lig[101,2,0] >= 0
 R278: difRigtd[101,2,1,2,1] - xRt[1,1] + Lig[101,2,1] >= 0
 R279: difRigtd[102,2,1,0,0] - xRt[1,0] + Lig[102,2,0] >= 0
 R280: difRigtd[102,2,1,0,1] - xRt[1,1] + Lig[102,2,1] >= 0
 R281: difRigtd[102,2,1,1,0] - xRt[1,0] + Lig[102,2,0] >= 0
 R282: difRigtd[102,2,1,1,1] - xRt[1,1] + Lig[102,2,1] >= 0
 R283: difRigtd[102,2,1,2,0] - xRt[1,0] + Lig[102,2,0] >= 0
 R284: difRigtd[102,2,1,2,1] - xRt[1,1] + Lig[102,2,1] >= 0
 R285: difRigtd[203,2,1,0,0] - xRt[1,0] + Lig[203,2,0] >= 0
 R286: difRigtd[203,2,1,0,1] - xRt[1,1] + Lig[203,2,1] >= 0
 R287: difRigtd[203,2,1,1,0] - xRt[1,0] + Lig[203,2,0] >= 0
 R288: difRigtd[203,2,1,1,1] - xRt[1,1] + Lig[203,2,1] >= 0
 R289: difRigtd[203,2,1,2,0] - xRt[1,0] + Lig[203,2,0] >= 0
 R290: difRigtd[203,2,1,2,1] - xRt[1,1] + Lig[203,2,1] >= 0
 R291: difRigtd[303,2,1,0,0] - xRt[1,0] + Lig[303,2,0] >= 0
 R292: difRigtd[303,2,1,0,1] - xRt[1,1] + Lig[303,2,1] >= 0
 R293: difRigtd[303,2,1,1,0] - xRt[1,0] + Lig[303,2,0] >= 0
 R294: difRigtd[303,2,1,1,1] - xRt[1,1] + Lig[303,2,1] >= 0
 R295: difRigtd[303,2,1,2,0] - xRt[1,0] + Lig[303,2,0] >= 0
 R296: difRigtd[303,2,1,2,1] - xRt[1,1] + Lig[303,2,1] >= 0
 R297: - 10000 vigtd[101,2,1,0] + pRigtd[101,2,1,0] <= 0
 R298: - 10000 vigtd[101,2,1,1] + pRigtd[101,2,1,1] <= 0
 R299: - 10000 vigtd[101,2,1,2] + pRigtd[101,2,1,2] <= 0
 R300: - 10000 vigtd[102,2,1,0] + pRigtd[102,2,1,0] <= 0
 R301: - 10000 vigtd[102,2,1,1] + pRigtd[102,2,1,1] <= 0
 R302: - 10000 vigtd[102,2,1,2] + pRigtd[102,2,1,2] <= 0
 R303: - 10000 vigtd[203,2,1,0] + pRigtd[203,2,1,0] <= 0
 R304: - 10000 vigtd[203,2,1,1] + pRigtd[203,2,1,1] <= 0
 R305: - 10000 vigtd[203,2,1,2] + pRigtd[203,2,1,2] <= 0
 R306: - 10000 vigtd[303,2,1,0] + pRigtd[303,2,1,0] <= 0
 R307: - 10000 vigtd[303,2,1,1] + pRigtd[303,2,1,1] <= 0
 R308: - 10000 vigtd[303,2,1,2] + pRigtd[303,2,1,2] <= 0
 R309: - dRigtd[101,2,1,0] + pRigtd[101,2,1,0] <= 0
 R310: - dRigtd[101,2,1,1] + pRigtd[101,2,1,1] <= 0
 R311: - dRigtd[101,2,1,2] + pRigtd[101,2,1,2] <= 0
 R312: - dRigtd[102,2,1,0] + pRigtd[102,2,1,0] <= 0
 R313: - dRigtd[102,2,1,1] + pRigtd[102,2,1,1] <= 0
 R314: - dRigtd[102,2,1,2] + pRigtd[102,2,1,2] <= 0
 R315: - dRigtd[203,2,1,0] + pRigtd[203,2,1,0] <= 0
 R316: - dRigtd[203,2,1,1] + pRigtd[203,2,1,1] <= 0
 R317: - dRigtd[203,2,1,2] + pRigtd[203,2,1,2] <= 0
 R318: - dRigtd[303,2,1,0] + pRigtd[303,2,1,0] <= 0
 R319: - dRigtd[303,2,1,1] + pRigtd[303,2,1,1] <= 0
 R320: - dRigtd[303,2,1,2] + pRigtd[303,2,1,2] <= 0
 R321: pRigtd[101,2,1,0] >= 0
 R322: pRigtd[101,2,1,1] >= 0
 R323: pRigtd[101,2,1,2] >= 0
 R324: pRigtd[102,2,1,0] >= 0
 R325: pRigtd[102,2,1,1] >= 0
 R326: pRigtd[102,2,1,2] >= 0
 R327: pRigtd[203,2,1,0] >= 0
 R328: pRigtd[203,2,1,1] >= 0
 R329: pRigtd[203,2,1,2] >= 0
 R330: pRigtd[303,2,1,0] >= 0
 R331: pRigtd[303,2,1,1] >= 0
 R332: pRigtd[303,2,1,2] >= 0
 R333: - 10000 vigtd[101,2,1,0] - dRigtd[101,2,1,0] + pRigtd[101,2,1,0]
   >= -10000
 R334: - 10000 vigtd[101,2,1,1] - dRigtd[101,2,1,1] + pRigtd[101,2,1,1]
   >= -10000
 R335: - 10000 vigtd[101,2,1,2] - dRigtd[101,2,1,2] + pRigtd[101,2,1,2]
   >= -10000
 R336: - 10000 vigtd[102,2,1,0] - dRigtd[102,2,1,0] + pRigtd[102,2,1,0]
   >= -10000
 R337: - 10000 vigtd[102,2,1,1] - dRigtd[102,2,1,1] + pRigtd[102,2,1,1]
   >= -10000
 R338: - 10000 vigtd[102,2,1,2] - dRigtd[102,2,1,2] + pRigtd[102,2,1,2]
   >= -10000
 R339: - 10000 vigtd[203,2,1,0] - dRigtd[203,2,1,0] + pRigtd[203,2,1,0]
   >= -10000
 R340: - 10000 vigtd[203,2,1,1] - dRigtd[203,2,1,1] + pRigtd[203,2,1,1]
   >= -10000
 R341: - 10000 vigtd[203,2,1,2] - dRigtd[203,2,1,2] + pRigtd[203,2,1,2]
   >= -10000
 R342: - 10000 vigtd[303,2,1,0] - dRigtd[303,2,1,0] + pRigtd[303,2,1,0]
   >= -10000
 R343: - 10000 vigtd[303,2,1,1] - dRigtd[303,2,1,1] + pRigtd[303,2,1,1]
   >= -10000
 R344: - 10000 vigtd[303,2,1,2] - dRigtd[303,2,1,2] + pRigtd[303,2,1,2]
   >= -10000
 error[0,0]: difRLt[0,0] + xLt[1,0] - xRt[0,0] >= 0
 error[0,1]: difRLt[0,1] + xLt[1,1] - xRt[0,1] >= 0
 error[1,0]: difRLt[1,0] + xLt[2,0] - xRt[1,0] >= 0
 error[1,1]: difRLt[1,1] + xLt[2,1] - xRt[1,1] >= 0
 error2[0,0]: difRLt[0,0] - xLt[1,0] + xRt[0,0] >= 0
 error2[0,1]: difRLt[0,1] - xLt[1,1] + xRt[0,1] >= 0
 error2[1,0]: difRLt[1,0] - xLt[2,0] + xRt[1,0] >= 0
 error2[1,1]: difRLt[1,1] - xLt[2,1] + xRt[1,1] >= 0
 R353: difLRt[0,0] - xLt[0,0] + xRt[0,0] >= 0
 R354: difLRt[0,1] - xLt[0,1] + xRt[0,1] >= 0
 R355: difLRt[1,0] - xLt[1,0] + xRt[1,0] >= 0
 R356: difLRt[1,1] - xLt[1,1] + xRt[1,1] >= 0
 R357: difLRt[2,0] - xLt[2,0] + xRt[2,0] >= 0
 R358: difLRt[2,1] - xLt[2,1] + xRt[2,1] >= 0
 R359: difLRt[0,0] + xLt[0,0] - xRt[0,0] >= 0
 R360: difLRt[0,1] + xLt[0,1] - xRt[0,1] >= 0
 R361: difLRt[1,0] + xLt[1,0] - xRt[1,0] >= 0
 R362: difLRt[1,1] + xLt[1,1] - xRt[1,1] >= 0
 R363: difLRt[2,0] + xLt[2,0] - xRt[2,0] >= 0
 R364: difLRt[2,1] + xLt[2,1] - xRt[2,1] >= 0
 R365: rhoig[101,2] - landaig[101,2] + minig[101,2] - maxig[101,2] = 0
 R366: minig[101,2] + maxig[101,2] - alphaig[101,2] = 0
 R367: pig[101,2] >= 0.4692385264381431
 R368: maxig[101,2] + entryig[101,2] <= 1
 R369: minig[101,2] - entryig[101,2] <= 0
 R370: Rig[101,2,0] + 2.708107538955183 rhoig[101,2] = 63.90228757198353
 R371: Rig[101,2,1] - 0.8886229883169179 rhoig[101,2] = 39.75248482558122
 R372: Lig[101,2,0] + 2.708107538955183 landaig[101,2] = 63.90228757198353
 R373: Lig[101,2,1] - 0.8886229883169179 landaig[101,2]
   = 39.75248482558122
 R374: rhoig[102,2] - landaig[102,2] + minig[102,2] - maxig[102,2] = 0
 R375: minig[102,2] + maxig[102,2] - alphaig[102,2] = 0
 R376: pig[102,2] >= 0.0961722604454617
 R377: maxig[102,2] + entryig[102,2] <= 1
 R378: minig[102,2] - entryig[102,2] <= 0
 R379: Rig[102,2,0] - 1.796596229658647 rhoig[102,2] = 59.3975838033697
 R380: Rig[102,2,1] + 3.154366791827997 rhoig[102,2] = 43.79547460572613
 R381: Lig[102,2,0] - 1.796596229658647 landaig[102,2] = 59.3975838033697
 R382: Lig[102,2,1] + 3.154366791827997 landaig[102,2] = 43.79547460572613
 R383: rhoig[203,2] - landaig[203,2] + minig[203,2] - maxig[203,2] = 0
 R384: minig[203,2] + maxig[203,2] - alphaig[203,2] = 0
 R385: pig[203,2] >= 0.9168613345297285
 R386: maxig[203,2] + entryig[203,2] <= 1
 R387: minig[203,2] - entryig[203,2] <= 0
 R388: Rig[203,2,0] + 0.5071983743423445 rhoig[203,2] = 64.40948594632587
 R389: Rig[203,2,1] + 3.493312419444976 rhoig[203,2] = 43.2457972450262
 R390: Lig[203,2,0] + 0.5071983743423445 landaig[203,2]
   = 64.40948594632587
 R391: Lig[203,2,1] + 3.493312419444976 landaig[203,2] = 43.2457972450262
 R392: rhoig[303,2] - landaig[303,2] + minig[303,2] - maxig[303,2] = 0
 R393: minig[303,2] + maxig[303,2] - alphaig[303,2] = 0
 R394: pig[303,2] >= 0.5659120274641931
 R395: maxig[303,2] + entryig[303,2] <= 1
 R396: minig[303,2] - entryig[303,2] <= 0
 R397: Rig[303,2,0] + 5.011902142956174 rhoig[303,2] = 64.40948594632587
 R398: Rig[303,2,1] - 0.5496773606999383 rhoig[303,2] = 43.2457972450262
 R399: Lig[303,2,0] + 5.011902142956174 landaig[303,2] = 64.40948594632587
 R400: Lig[303,2,1] - 0.5496773606999383 landaig[303,2] = 43.2457972450262
 R401: xLt[0,0] = 91.48711114023854
 R402: xLt[0,1] = 91.48714978631412
 R403: xRt[0,0] = 91.48711114023854
 R404: xRt[0,1] = 91.48714978631412
 R405: xLt[2,0] = 100
 R406: xLt[2,1] = 100
 R407: xRt[2,0] = 100
 R408: xRt[2,1] = 100
 difLigtd[101,2,1,0]: [ - dLigtd[101,2,1,0] ^2 + difLigtd[101,2,1,0,0] ^2
   + difLigtd[101,2,1,0,1] ^2 ] <= 0
 difLigtd[101,2,1,1]: [ - dLigtd[101,2,1,1] ^2 + difLigtd[101,2,1,1,0] ^2
   + difLigtd[101,2,1,1,1] ^2 ] <= 0
 difLigtd[101,2,1,2]: [ - dLigtd[101,2,1,2] ^2 + difLigtd[101,2,1,2,0] ^2
   + difLigtd[101,2,1,2,1] ^2 ] <= 0
 difLigtd[102,2,1,0]: [ - dLigtd[102,2,1,0] ^2 + difLigtd[102,2,1,0,0] ^2
   + difLigtd[102,2,1,0,1] ^2 ] <= 0
 difLigtd[102,2,1,1]: [ - dLigtd[102,2,1,1] ^2 + difLigtd[102,2,1,1,0] ^2
   + difLigtd[102,2,1,1,1] ^2 ] <= 0
 difLigtd[102,2,1,2]: [ - dLigtd[102,2,1,2] ^2 + difLigtd[102,2,1,2,0] ^2
   + difLigtd[102,2,1,2,1] ^2 ] <= 0
 difLigtd[203,2,1,0]: [ - dLigtd[203,2,1,0] ^2 + difLigtd[203,2,1,0,0] ^2
   + difLigtd[203,2,1,0,1] ^2 ] <= 0
 difLigtd[203,2,1,1]: [ - dLigtd[203,2,1,1] ^2 + difLigtd[203,2,1,1,0] ^2
   + difLigtd[203,2,1,1,1] ^2 ] <= 0
 difLigtd[203,2,1,2]: [ - dLigtd[203,2,1,2] ^2 + difLigtd[203,2,1,2,0] ^2
   + difLigtd[203,2,1,2,1] ^2 ] <= 0
 difLigtd[303,2,1,0]: [ - dLigtd[303,2,1,0] ^2 + difLigtd[303,2,1,0,0] ^2
   + difLigtd[303,2,1,0,1] ^2 ] <= 0
 difLigtd[303,2,1,1]: [ - dLigtd[303,2,1,1] ^2 + difLigtd[303,2,1,1,0] ^2
   + difLigtd[303,2,1,1,1] ^2 ] <= 0
 difLigtd[303,2,1,2]: [ - dLigtd[303,2,1,2] ^2 + difLigtd[303,2,1,2,0] ^2
   + difLigtd[303,2,1,2,1] ^2 ] <= 0
 difigjg[101,102,2]: [ - digjg[101,102,2] ^2 + difigjg[101,102,2,0] ^2
   + difigjg[101,102,2,1] ^2 ] <= 0
 difigjg[101,203,2]: [ - digjg[101,203,2] ^2 + difigjg[101,203,2,0] ^2
   + difigjg[101,203,2,1] ^2 ] <= 0
 difigjg[101,303,2]: [ - digjg[101,303,2] ^2 + difigjg[101,303,2,0] ^2
   + difigjg[101,303,2,1] ^2 ] <= 0
 difigjg[102,101,2]: [ - digjg[102,101,2] ^2 + difigjg[102,101,2,0] ^2
   + difigjg[102,101,2,1] ^2 ] <= 0
 difigjg[102,203,2]: [ - digjg[102,203,2] ^2 + difigjg[102,203,2,0] ^2
   + difigjg[102,203,2,1] ^2 ] <= 0
 difigjg[102,303,2]: [ - digjg[102,303,2] ^2 + difigjg[102,303,2,0] ^2
   + difigjg[102,303,2,1] ^2 ] <= 0
 difigjg[203,101,2]: [ - digjg[203,101,2] ^2 + difigjg[203,101,2,0] ^2
   + difigjg[203,101,2,1] ^2 ] <= 0
 difigjg[203,102,2]: [ - digjg[203,102,2] ^2 + difigjg[203,102,2,0] ^2
   + difigjg[203,102,2,1] ^2 ] <= 0
 difigjg[203,303,2]: [ - digjg[203,303,2] ^2 + difigjg[203,303,2,0] ^2
   + difigjg[203,303,2,1] ^2 ] <= 0
 difigjg[303,101,2]: [ - digjg[303,101,2] ^2 + difigjg[303,101,2,0] ^2
   + difigjg[303,101,2,1] ^2 ] <= 0
 difigjg[303,102,2]: [ - digjg[303,102,2] ^2 + difigjg[303,102,2,0] ^2
   + difigjg[303,102,2,1] ^2 ] <= 0
 difigjg[303,203,2]: [ - digjg[303,203,2] ^2 + difigjg[303,203,2,0] ^2
   + difigjg[303,203,2,1] ^2 ] <= 0
 difRigtd[101,2,1,0]: [ - dRigtd[101,2,1,0] ^2 + difRigtd[101,2,1,0,0] ^2
   + difRigtd[101,2,1,0,1] ^2 ] <= 0
 difRigtd[101,2,1,1]: [ - dRigtd[101,2,1,1] ^2 + difRigtd[101,2,1,1,0] ^2
   + difRigtd[101,2,1,1,1] ^2 ] <= 0
 difRigtd[101,2,1,2]: [ - dRigtd[101,2,1,2] ^2 + difRigtd[101,2,1,2,0] ^2
   + difRigtd[101,2,1,2,1] ^2 ] <= 0
 difRigtd[102,2,1,0]: [ - dRigtd[102,2,1,0] ^2 + difRigtd[102,2,1,0,0] ^2
   + difRigtd[102,2,1,0,1] ^2 ] <= 0
 difRigtd[102,2,1,1]: [ - dRigtd[102,2,1,1] ^2 + difRigtd[102,2,1,1,0] ^2
   + difRigtd[102,2,1,1,1] ^2 ] <= 0
 difRigtd[102,2,1,2]: [ - dRigtd[102,2,1,2] ^2 + difRigtd[102,2,1,2,0] ^2
   + difRigtd[102,2,1,2,1] ^2 ] <= 0
 difRigtd[203,2,1,0]: [ - dRigtd[203,2,1,0] ^2 + difRigtd[203,2,1,0,0] ^2
   + difRigtd[203,2,1,0,1] ^2 ] <= 0
 difRigtd[203,2,1,1]: [ - dRigtd[203,2,1,1] ^2 + difRigtd[203,2,1,1,0] ^2
   + difRigtd[203,2,1,1,1] ^2 ] <= 0
 difRigtd[203,2,1,2]: [ - dRigtd[203,2,1,2] ^2 + difRigtd[203,2,1,2,0] ^2
   + difRigtd[203,2,1,2,1] ^2 ] <= 0
 difRigtd[303,2,1,0]: [ - dRigtd[303,2,1,0] ^2 + difRigtd[303,2,1,0,0] ^2
   + difRigtd[303,2,1,0,1] ^2 ] <= 0
 difRigtd[303,2,1,1]: [ - dRigtd[303,2,1,1] ^2 + difRigtd[303,2,1,1,0] ^2
   + difRigtd[303,2,1,1,1] ^2 ] <= 0
 difRigtd[303,2,1,2]: [ - dRigtd[303,2,1,2] ^2 + difRigtd[303,2,1,2,0] ^2
   + difRigtd[303,2,1,2,1] ^2 ] <= 0
 difRLt[0]: [ - dRLt[0] ^2 + difRLt[0,0] ^2 + difRLt[0,1] ^2 ] <= 0
 difRLt[1]: [ - dRLt[1] ^2 + difRLt[1,0] ^2 + difRLt[1,1] ^2 ] <= 0
 difLRt[0]: [ - dLRt[0] ^2 + difLRt[0,0] ^2 + difLRt[0,1] ^2 ] <= 0
 difLRt[1]: [ - dLRt[1] ^2 + difLRt[1,0] ^2 + difLRt[1,1] ^2 ] <= 0
 difLRt[2]: [ - dLRt[2] ^2 + difLRt[2,0] ^2 + difLRt[2,1] ^2 ] <= 0
Bounds
 deltat[0] <= 1
 deltat[1] <= 1
 deltat[2] <= 1
 rhoig[101,2] <= 1
 rhoig[102,2] <= 1
 rhoig[203,2] <= 1
 rhoig[303,2] <= 1
 landaig[101,2] <= 1
 landaig[102,2] <= 1
 landaig[203,2] <= 1
 landaig[303,2] <= 1
 minig[101,2] <= 1
 minig[102,2] <= 1
 minig[203,2] <= 1
 minig[303,2] <= 1
 maxig[101,2] <= 1
 maxig[102,2] <= 1
 maxig[203,2] <= 1
 maxig[303,2] <= 1
 pig[101,2] <= 1
 pig[102,2] <= 1
 pig[203,2] <= 1
 pig[303,2] <= 1
 alphaig[101,2] <= 1
 alphaig[102,2] <= 1
 alphaig[203,2] <= 1
 alphaig[303,2] <= 1
Binaries
 uigtd[101,2,1,0] uigtd[101,2,1,1] uigtd[101,2,1,2] uigtd[102,2,1,0]
 uigtd[102,2,1,1] uigtd[102,2,1,2] uigtd[203,2,1,0] uigtd[203,2,1,1]
 uigtd[203,2,1,2] uigtd[303,2,1,0] uigtd[303,2,1,1] uigtd[303,2,1,2]
 vigtd[101,2,1,0] vigtd[101,2,1,1] vigtd[101,2,1,2] vigtd[102,2,1,0]
 vigtd[102,2,1,1] vigtd[102,2,1,2] vigtd[203,2,1,0] vigtd[203,2,1,1]
 vigtd[203,2,1,2] vigtd[303,2,1,0] vigtd[303,2,1,1] vigtd[303,2,1,2]
 zigjg[101,102,2] zigjg[101,203,2] zigjg[101,303,2] zigjg[102,101,2]
 zigjg[102,203,2] zigjg[102,303,2] zigjg[203,101,2] zigjg[203,102,2]
 zigjg[203,303,2] zigjg[303,101,2] zigjg[303,102,2] zigjg[303,203,2]
 betat[0] betat[1] betat[2] entryig[101,2] entryig[102,2] entryig[203,2]
 entryig[303,2] muig[101,2] muig[102,2] muig[203,2] muig[303,2]
End
